Total weight: 709.5
Route 1: 0 21 22 20 24 27 29 30 28 26 23 17 18 19 16 14 12 15 13 25 9 11 10 8 0 
Route 2: 0 48 43 41 42 50 31 35 37 38 39 36 34 33 32 6 52 51 44 40 46 45 47 0 
Route 3: 0 67 63 62 74 66 69 68 65 49 55 54 53 56 58 60 59 57 64 61 72 80 76 71 70 73 79 81 85 78 77 82 83 0 
Route 4: 0 93 5 75 2 1 99 100 97 92 94 95 98 7 3 4 89 91 88 84 86 90 87 96 0 
